
c turning on binary mode checking

c parsing input formula with 5720 variables and 25546 clauses

c finished parsing, read 15080 bytes from proof file

c detected empty clause; start verification via backward checking

c 1284 of 25546 clauses in core                            

c 35 of 3747 lemmas in core using 16266 resolution steps

c 0 RAT lemmas in core; 3 redundant literals in core lemmas

s VERIFIED

c verification time: 0.059 seconds
